\Generated by Cardinal Operations

Maximize
   888 x_0_0 + 134 x_1_0 + 129 x_2_0 + 370 x_3_0 + 921 x_4_0 + 765 x_5_0 
   + 154 x_6_0 + 837 x_7_0 + 584 x_8_0 + 365 x_9_0 
Subject To
 capacity_constraint: 4 x_0_0 + 2 x_1_0 + 4 x_2_0 + 3 x_3_0 + 2 x_4_0 
   + x_5_0 + 2 x_6_0 + x_7_0 + 3 x_8_0 + 3 x_9_0 <= 180
Generals
 x_0_0  x_1_0  x_2_0  x_3_0  x_4_0  x_5_0  x_6_0  x_7_0  x_8_0  x_9_0  
END

